c Reachability CNF generated by lab1_parser_jkhare.cpp
c File: ./verilog_src/stoplight2.v
c Unroll k = 1
c Target at time k = 01000
p cnf 119 307
5 8 0
-5 -8 0
1 9 0
-1 -9 0
2 10 0
-2 -10 0
-10 -9 11 0
10 -11 0
9 -11 0
-11 -3 12 0
11 -12 0
3 -12 0
-12 -8 13 0
12 -13 0
8 -13 0
13 14 0
-13 -14 0
4 15 0
-4 -15 0
6 16 0
-6 -16 0
-16 -15 17 0
16 -17 0
15 -17 0
-17 -12 18 0
17 -18 0
12 -18 0
18 19 0
-18 -19 0
-6 -5 20 0
6 -20 0
5 -20 0
-20 -12 21 0
20 -21 0
12 -21 0
21 22 0
-21 -22 0
-22 -19 23 0
22 -23 0
19 -23 0
-23 -14 24 0
23 -24 0
14 -24 0
3 25 0
-3 -25 0
-11 -25 26 0
11 -26 0
25 -26 0
-5 -4 27 0
5 -27 0
4 -27 0
-27 -6 28 0
27 -28 0
6 -28 0
-28 -26 29 0
28 -29 0
26 -29 0
29 30 0
-29 -30 0
-25 -10 31 0
25 -31 0
10 -31 0
-27 -16 32 0
27 -32 0
16 -32 0
-32 -31 33 0
32 -33 0
31 -33 0
33 34 0
-33 -34 0
-34 -30 35 0
34 -35 0
30 -35 0
-3 -10 36 0
3 -36 0
10 -36 0
-36 -32 37 0
36 -37 0
32 -37 0
37 38 0
-37 -38 0
-25 -1 39 0
25 -39 0
1 -39 0
-8 -15 40 0
8 -40 0
15 -40 0
-40 -39 41 0
40 -41 0
39 -41 0
41 42 0
-41 -42 0
-10 -1 43 0
10 -43 0
1 -43 0
43 44 0
-43 -44 0
-44 -42 45 0
44 -45 0
42 -45 0
-45 -38 46 0
45 -46 0
38 -46 0
-46 -35 47 0
46 -47 0
35 -47 0
-47 -24 48 0
47 -48 0
24 -48 0
48 49 0
-48 -49 0
-2 -9 50 0
2 -50 0
9 -50 0
-15 -25 51 0
15 -51 0
25 -51 0
-51 -50 52 0
51 -52 0
50 -52 0
-5 -15 53 0
5 -53 0
15 -53 0
-53 -26 54 0
53 -54 0
26 -54 0
54 55 0
-54 -55 0
-26 -8 56 0
26 -56 0
8 -56 0
56 57 0
-56 -57 0
-57 -55 58 0
57 -58 0
55 -58 0
58 59 0
-58 -59 0
-6 -8 60 0
6 -60 0
8 -60 0
-60 -43 61 0
60 -61 0
43 -61 0
61 62 0
-61 -62 0
-5 -1 63 0
5 -63 0
1 -63 0
-63 -16 64 0
63 -64 0
16 -64 0
64 65 0
-64 -65 0
-65 -62 66 0
65 -66 0
62 -66 0
-66 -38 67 0
66 -67 0
38 -67 0
-67 -22 68 0
67 -68 0
22 -68 0
68 69 0
-68 -69 0
-4 -3 70 0
4 -70 0
3 -70 0
-70 -64 71 0
70 -71 0
64 -71 0
71 72 0
-71 -72 0
-50 -8 73 0
50 -73 0
8 -73 0
73 74 0
-73 -74 0
-8 -2 75 0
8 -75 0
2 -75 0
-75 -6 76 0
75 -76 0
6 -76 0
76 77 0
-76 -77 0
-77 -74 78 0
77 -78 0
74 -78 0
-78 -72 79 0
78 -79 0
72 -79 0
79 80 0
-79 -80 0
-15 -3 81 0
15 -81 0
3 -81 0
-16 -5 82 0
16 -82 0
5 -82 0
-82 -81 83 0
82 -83 0
81 -83 0
83 84 0
-83 -84 0
-8 -3 85 0
8 -85 0
3 -85 0
-85 -6 86 0
85 -86 0
6 -86 0
86 87 0
-86 -87 0
-87 -84 88 0
87 -88 0
84 -88 0
-88 -14 89 0
88 -89 0
14 -89 0
-89 -35 90 0
89 -90 0
35 -90 0
90 91 0
-90 -91 0
-63 -17 92 0
63 -92 0
17 -92 0
92 93 0
-92 -93 0
-3 -9 94 0
3 -94 0
9 -94 0
-94 -60 95 0
94 -95 0
60 -95 0
95 96 0
-95 -96 0
-96 -93 97 0
96 -97 0
93 -97 0
-8 -4 98 0
8 -98 0
4 -98 0
-98 -6 99 0
98 -99 0
6 -99 0
99 100 0
-99 -100 0
-4 -9 101 0
4 -101 0
9 -101 0
-101 -8 102 0
101 -102 0
8 -102 0
102 103 0
-102 -103 0
-103 -100 104 0
103 -104 0
100 -104 0
-104 -97 105 0
104 -105 0
97 -105 0
-55 -30 106 0
55 -106 0
30 -106 0
-106 -105 107 0
106 -107 0
105 -107 0
107 108 0
-107 -108 0
-74 -62 109 0
74 -109 0
62 -109 0
-103 -87 110 0
103 -110 0
87 -110 0
-110 -109 111 0
110 -111 0
109 -111 0
-57 -19 112 0
57 -112 0
19 -112 0
-112 -111 113 0
112 -113 0
111 -113 0
113 114 0
-113 -114 0
-115 69 0
115 -69 0
-116 80 0
116 -80 0
-117 91 0
117 -91 0
-118 108 0
118 -108 0
-119 114 0
119 -114 0
-115 0
116 0
-117 0
-118 0
-119 0
-1 0
-2 0
-3 0
-4 0
-5 0
